
n_res = 8;
rcap = [29, 26, 25, 28, 711, 733, 708, 737];
rtype = [1, 1, 1, 1, 2, 2, 2, 2];
n_tasks = 50;
modes =  [{1, 2, 3, 4, 5, 6, 7, 8, 9}, {10, 11, 12, 13, 14, 15, 16, 17, 18}, {19, 20, 21, 22, 23, 24, 25, 26, 27}, {28, 29, 30, 31, 32, 33, 34, 35, 36}, {37, 38, 39, 40, 41, 42, 43, 44, 45}, {46, 47, 48, 49, 50, 51, 52, 53, 54}, {55, 56, 57, 58, 59, 60, 61, 62, 63}, {64, 65, 66, 67, 68, 69, 70, 71, 72}, {73, 74, 75, 76, 77, 78, 79, 80, 81}, {82, 83, 84, 85, 86, 87, 88, 89, 90}, {91, 92, 93, 94, 95, 96, 97, 98, 99}, {100, 101, 102, 103, 104, 105, 106, 107, 108}, {109, 110, 111, 112, 113, 114, 115, 116, 117}, {118, 119, 120, 121, 122, 123, 124, 125, 126}, {127, 128, 129, 130, 131, 132, 133, 134, 135}, {136, 137, 138, 139, 140, 141, 142, 143, 144}, {145, 146, 147, 148, 149, 150, 151, 152, 153}, {154, 155, 156, 157, 158, 159, 160, 161, 162}, {163, 164, 165, 166, 167, 168, 169, 170, 171}, {172, 173, 174, 175, 176, 177, 178, 179, 180}, {181, 182, 183, 184, 185, 186, 187, 188, 189}, {190, 191, 192, 193, 194, 195, 196, 197, 198}, {199, 200, 201, 202, 203, 204, 205, 206, 207}, {208, 209, 210, 211, 212, 213, 214, 215, 216}, {217, 218, 219, 220, 221, 222, 223, 224, 225}, {226, 227, 228, 229, 230, 231, 232, 233, 234}, {235, 236, 237, 238, 239, 240, 241, 242, 243}, {244, 245, 246, 247, 248, 249, 250, 251, 252}, {253, 254, 255, 256, 257, 258, 259, 260, 261}, {262, 263, 264, 265, 266, 267, 268, 269, 270}, {271, 272, 273, 274, 275, 276, 277, 278, 279}, {280, 281, 282, 283, 284, 285, 286, 287, 288}, {289, 290, 291, 292, 293, 294, 295, 296, 297}, {298, 299, 300, 301, 302, 303, 304, 305, 306}, {307, 308, 309, 310, 311, 312, 313, 314, 315}, {316, 317, 318, 319, 320, 321, 322, 323, 324}, {325, 326, 327, 328, 329, 330, 331, 332, 333}, {334, 335, 336, 337, 338, 339, 340, 341, 342}, {343, 344, 345, 346, 347, 348, 349, 350, 351}, {352, 353, 354, 355, 356, 357, 358, 359, 360}, {361, 362, 363, 364, 365, 366, 367, 368, 369}, {370, 371, 372, 373, 374, 375, 376, 377, 378}, {379, 380, 381, 382, 383, 384, 385, 386, 387}, {388, 389, 390, 391, 392, 393, 394, 395, 396}, {397, 398, 399, 400, 401, 402, 403, 404, 405}, {406, 407, 408, 409, 410, 411, 412, 413, 414}, {415, 416, 417, 418, 419, 420, 421, 422, 423}, {424, 425, 426, 427, 428, 429, 430, 431, 432}, {433, 434, 435, 436, 437, 438, 439, 440, 441}, {442, 443, 444, 445, 446, 447, 448, 449, 450}];
succ =  [{48, 46, 45, 35, 31, 30, 27, 26, 23, 22, 17, 11, 10}, {49, 48, 46, 31, 30, 27, 26, 21, 19, 17, 11}, {45, 35, 30, 29, 19, 18, 9}, {45, 44, 35, 30, 26, 22, 11}, {50, 48, 47, 46, 45, 44, 42, 40, 35, 34, 32, 29, 28}, {48, 46, 45, 43, 41, 40, 39, 33, 30, 28, 26, 23}, {48, 46, 42, 41, 40, 38, 33, 21}, {47, 44, 39, 38, 35, 27, 26}, {49, 47, 46, 44, 43, 42, 40, 39, 38, 37, 34}, {47, 44, 43, 42, 41, 40, 39, 38, 37, 34}, {47, 41, 40, 39, 33, 29, 28}, {42, 40, 39, 38, 33, 31, 28}, {49, 46, 34, 29, 20}, {45, 33, 26, 20}, {49, 43, 41, 40, 39, 29}, {49, 44, 41, 38, 26}, {44, 43, 40, 39, 38, 36}, {46, 42, 41, 38, 37, 36}, {40, 39, 38, 28}, {42, 41, 40, 37, 36}, {45, 39, 37, 35}, {38, 37, 33}, {44, 38, 37, 36}, {48, 45, 37, 36}, {40, 39, 38, 36}, {42, 37, 36}, {41, 34}, {37, 36}, {38, 37}, {37, 36}, {41, 36}, {39, 38}, {34}, {36}, {43}, {}, {}, {}, {}, {}, {}, {}, {}, {}, {}, {}, {}, {}, {}, {}];
n_opt = 450;
dur = [4, 6, 10, 13, 14, 19, 20, 28, 29, 1, 3, 5, 7, 15, 21, 22, 25, 26, 2, 6, 7, 9, 10, 14, 24, 26, 29, 1, 3, 5, 8, 11, 17, 21, 27, 30, 1, 4, 5, 10, 11, 15, 18, 21, 27, 3, 5, 8, 9, 21, 22, 27, 29, 30, 3, 9, 11, 21, 22, 23, 24, 25, 29, 4, 5, 14, 15, 21, 26, 28, 29, 30, 6, 12, 13, 14, 16, 17, 21, 23, 26, 9, 11, 15, 19, 21, 23, 25, 29, 30, 4, 12, 13, 17, 18, 21, 23, 28, 29, 3, 7, 9, 13, 14, 19, 22, 24, 28, 2, 5, 6, 13, 16, 20, 24, 26, 28, 1, 3, 6, 9, 19, 21, 24, 28, 29, 1, 10, 14, 20, 22, 25, 26, 27, 28, 2, 5, 8, 17, 18, 19, 23, 24, 28, 1, 8, 9, 14, 16, 18, 19, 20, 27, 2, 4, 9, 14, 19, 20, 23, 29, 30, 1, 7, 8, 14, 15, 19, 20, 23, 24, 4, 6, 7, 8, 13, 17, 21, 22, 27, 4, 5, 12, 15, 16, 23, 24, 26, 30, 1, 5, 7, 9, 10, 17, 20, 24, 28, 3, 9, 11, 17, 18, 19, 20, 22, 28, 2, 5, 8, 10, 11, 12, 13, 20, 22, 3, 16, 17, 21, 22, 23, 24, 25, 28, 2, 3, 5, 8, 9, 21, 28, 29, 30, 11, 16, 22, 23, 24, 25, 26, 29, 30, 2, 12, 14, 17, 21, 22, 24, 26, 27, 1, 4, 5, 6, 7, 8, 12, 17, 20, 1, 5, 16, 19, 20, 21, 22, 23, 29, 6, 7, 11, 12, 13, 17, 21, 27, 29, 2, 4, 10, 11, 12, 13, 20, 24, 29, 5, 14, 17, 18, 19, 21, 23, 28, 29, 2, 10, 11, 15, 19, 22, 23, 24, 27, 6, 9, 16, 17, 20, 21, 25, 26, 28, 4, 10, 12, 13, 15, 16, 24, 29, 30, 2, 3, 11, 12, 13, 14, 16, 23, 30, 7, 8, 10, 11, 16, 19, 25, 28, 29, 1, 9, 11, 12, 14, 15, 18, 24, 27, 2, 8, 10, 16, 18, 19, 20, 27, 30, 1, 13, 14, 15, 17, 18, 19, 20, 29, 3, 5, 6, 9, 16, 19, 20, 26, 30, 6, 8, 10, 14, 16, 17, 18, 19, 21, 1, 2, 10, 11, 12, 14, 22, 23, 30, 3, 6, 12, 20, 21, 27, 28, 29, 30, 1, 8, 11, 14, 15, 19, 20, 21, 22, 4, 5, 12, 13, 14, 15, 16, 24, 29, 1, 3, 6, 10, 13, 14, 16, 23, 29, 1, 2, 3, 8, 12, 20, 25, 26, 27, 1, 14, 15, 18, 20, 27, 28, 29, 30];
rreq = [|3, 3, 3, 3, 3, 3, 3, 3, 3, 2, 2, 2, 2, 2, 2, 2, 2, 2, 4, 4, 4, 4, 4, 4, 4, 4, 4, 5, 4, 4, 4, 4, 4, 4, 4, 4, 4, 4, 4, 4, 4, 4, 4, 4, 4, 5, 4, 4, 4, 3, 3, 3, 2, 2, 3, 3, 3, 3, 3, 3, 3, 3, 3, 4, 4, 4, 4, 3, 3, 3, 3, 3, 4, 4, 4, 3, 2, 2, 1, 1, 1, 2, 2, 2, 2, 2, 2, 2, 2, 2, 3, 2, 2, 2, 1, 1, 1, 1, 1, 3, 3, 3, 3, 3, 3, 3, 3, 3, 5, 4, 4, 3, 3, 3, 3, 2, 2, 3, 2, 2, 2, 2, 1, 1, 1, 1, 2, 1, 1, 1, 1, 1, 1, 1, 1, 4, 3, 3, 3, 2, 2, 2, 1, 1, 4, 4, 3, 3, 3, 2, 1, 1, 1, 2, 1, 1, 1, 1, 1, 1, 1, 1, 3, 2, 2, 2, 2, 1, 1, 1, 1, 5, 5, 5, 5, 5, 5, 5, 5, 5, 3, 3, 3, 3, 3, 3, 3, 3, 3, 3, 3, 3, 3, 3, 3, 3, 3, 3, 2, 2, 2, 2, 1, 1, 1, 1, 1, 2, 2, 2, 2, 2, 2, 2, 2, 2, 4, 3, 3, 3, 3, 3, 3, 3, 3, 3, 3, 3, 3, 3, 3, 3, 3, 3, 5, 4, 4, 4, 3, 3, 3, 2, 2, 1, 1, 1, 1, 1, 1, 1, 1, 1, 4, 3, 3, 3, 2, 2, 1, 1, 1, 3, 3, 3, 3, 3, 3, 3, 3, 3, 1, 1, 1, 1, 1, 1, 1, 1, 1, 2, 2, 2, 2, 2, 1, 1, 1, 1, 4, 4, 4, 4, 4, 4, 4, 4, 4, 4, 3, 3, 3, 2, 2, 2, 1, 1, 1, 1, 1, 1, 1, 1, 1, 1, 1, 5, 4, 4, 4, 4, 3, 3, 3, 3, 3, 2, 2, 2, 2, 2, 2, 2, 2, 4, 4, 4, 4, 4, 4, 4, 4, 4, 2, 2, 2, 2, 2, 2, 2, 2, 2, 1, 1, 1, 1, 1, 1, 1, 1, 1, 5, 4, 4, 4, 3, 3, 2, 2, 2, 3, 3, 3, 3, 3, 3, 3, 3, 3, 5, 4, 4, 3, 2, 2, 2, 1, 1, 1, 1, 1, 1, 1, 1, 1, 1, 1, 3, 3, 3, 2, 2, 2, 1, 1, 1, 4, 4, 4, 4, 4, 4, 4, 4, 4, 4, 3, 3, 3, 3, 3, 3, 3, 3, 5, 4, 4, 4, 4, 4, 4, 4, 4, 4, 4, 4, 4, 4, 4, 4, 4, 4, 3, 3, 3, 3, 2, 2, 2, 2, 2
 |1, 1, 1, 1, 1, 1, 1, 1, 1, 4, 4, 4, 3, 3, 2, 2, 1, 1, 1, 1, 1, 1, 1, 1, 1, 1, 1, 3, 2, 2, 2, 2, 2, 2, 2, 2, 4, 3, 3, 3, 3, 3, 3, 3, 3, 2, 2, 2, 2, 2, 2, 2, 2, 2, 4, 3, 3, 3, 2, 2, 1, 1, 1, 2, 2, 2, 2, 2, 1, 1, 1, 1, 5, 4, 4, 4, 4, 3, 3, 3, 3, 3, 3, 3, 3, 3, 3, 3, 3, 3, 2, 2, 2, 2, 1, 1, 1, 1, 1, 4, 4, 4, 4, 4, 4, 4, 4, 4, 3, 2, 2, 2, 2, 1, 1, 1, 1, 4, 4, 4, 4, 4, 4, 4, 4, 4, 5, 4, 4, 3, 3, 2, 2, 1, 1, 5, 4, 4, 3, 3, 2, 2, 1, 1, 3, 3, 3, 3, 2, 2, 2, 2, 2, 5, 4, 4, 4, 4, 4, 4, 4, 4, 4, 4, 4, 4, 4, 4, 4, 4, 4, 5, 4, 4, 4, 3, 3, 2, 2, 2, 2, 2, 2, 2, 2, 2, 2, 2, 2, 1, 1, 1, 1, 1, 1, 1, 1, 1, 1, 1, 1, 1, 1, 1, 1, 1, 1, 3, 3, 3, 3, 3, 3, 3, 3, 3, 3, 3, 3, 3, 3, 3, 3, 3, 3, 5, 5, 5, 5, 5, 5, 5, 5, 5, 5, 4, 4, 4, 4, 3, 3, 3, 3, 4, 4, 3, 3, 2, 2, 1, 1, 1, 4, 4, 4, 4, 4, 4, 4, 4, 4, 3, 3, 3, 3, 3, 3, 3, 3, 3, 3, 3, 3, 2, 2, 2, 2, 1, 1, 3, 3, 3, 3, 3, 3, 3, 3, 3, 3, 3, 3, 3, 2, 2, 1, 1, 1, 2, 1, 1, 1, 1, 1, 1, 1, 1, 5, 4, 4, 4, 4, 4, 4, 4, 4, 2, 2, 2, 2, 1, 1, 1, 1, 1, 5, 4, 4, 4, 3, 3, 2, 2, 2, 5, 5, 5, 5, 5, 5, 5, 5, 5, 3, 2, 2, 2, 2, 2, 2, 2, 2, 3, 3, 3, 3, 2, 2, 1, 1, 1, 1, 1, 1, 1, 1, 1, 1, 1, 1, 3, 3, 3, 3, 3, 3, 3, 3, 3, 4, 4, 4, 3, 3, 3, 2, 2, 2, 4, 4, 4, 4, 4, 4, 4, 4, 4, 4, 3, 3, 3, 2, 2, 1, 1, 1, 3, 3, 3, 3, 3, 3, 3, 3, 3, 4, 3, 3, 2, 2, 2, 2, 1, 1, 4, 3, 3, 3, 2, 2, 1, 1, 1, 5, 4, 4, 4, 4, 3, 3, 3, 3, 3, 3, 3, 3, 3, 3, 3, 3, 3
 |1, 1, 1, 1, 1, 1, 1, 1, 1, 3, 3, 3, 3, 3, 3, 3, 3, 3, 3, 2, 2, 2, 2, 1, 1, 1, 1, 3, 2, 2, 2, 2, 1, 1, 1, 1, 4, 3, 3, 3, 3, 3, 3, 3, 3, 5, 5, 5, 5, 5, 5, 5, 5, 5, 3, 2, 2, 2, 2, 1, 1, 1, 1, 4, 3, 3, 3, 3, 3, 3, 3, 3, 2, 2, 2, 2, 2, 2, 2, 2, 2, 3, 3, 3, 3, 3, 3, 3, 3, 3, 5, 4, 4, 4, 3, 3, 3, 3, 3, 4, 4, 4, 4, 3, 3, 3, 3, 3, 2, 2, 2, 2, 2, 2, 2, 2, 2, 1, 1, 1, 1, 1, 1, 1, 1, 1, 5, 4, 4, 3, 3, 3, 3, 2, 2, 2, 2, 2, 2, 2, 2, 2, 2, 2, 4, 4, 4, 4, 4, 3, 3, 3, 3, 5, 4, 4, 4, 4, 4, 4, 4, 4, 5, 4, 4, 4, 4, 4, 4, 4, 4, 4, 3, 3, 3, 3, 3, 3, 3, 3, 3, 2, 2, 2, 2, 2, 2, 2, 2, 3, 3, 3, 3, 3, 2, 2, 2, 2, 4, 4, 4, 4, 4, 4, 4, 4, 4, 1, 1, 1, 1, 1, 1, 1, 1, 1, 5, 4, 4, 3, 3, 3, 3, 2, 2, 3, 3, 3, 3, 2, 2, 2, 1, 1, 4, 4, 4, 4, 4, 4, 4, 4, 4, 3, 3, 3, 3, 3, 2, 2, 2, 2, 4, 3, 3, 3, 2, 2, 1, 1, 1, 1, 1, 1, 1, 1, 1, 1, 1, 1, 5, 4, 4, 4, 3, 3, 3, 2, 2, 3, 2, 2, 2, 2, 2, 2, 2, 2, 5, 4, 4, 4, 4, 3, 3, 3, 3, 2, 1, 1, 1, 1, 1, 1, 1, 1, 5, 4, 4, 4, 4, 4, 4, 4, 4, 3, 3, 3, 3, 3, 3, 3, 3, 3, 3, 3, 3, 3, 3, 3, 3, 3, 3, 5, 4, 4, 4, 4, 4, 4, 4, 4, 1, 1, 1, 1, 1, 1, 1, 1, 1, 2, 2, 2, 2, 1, 1, 1, 1, 1, 5, 4, 4, 4, 3, 3, 3, 3, 3, 4, 4, 4, 4, 4, 3, 3, 3, 3, 4, 3, 3, 3, 3, 3, 3, 3, 3, 5, 5, 5, 5, 5, 5, 5, 5, 5, 5, 5, 5, 5, 5, 5, 5, 5, 5, 4, 4, 4, 4, 4, 4, 4, 4, 4, 4, 4, 4, 4, 4, 4, 4, 4, 4, 5, 5, 5, 5, 5, 5, 5, 5, 5, 3, 2, 2, 2, 2, 2, 2, 2, 2, 2, 2, 2, 2, 2, 2, 2, 2, 2
 |5, 4, 4, 4, 4, 4, 4, 4, 4, 4, 3, 3, 3, 2, 2, 2, 2, 2, 3, 2, 2, 2, 1, 1, 1, 1, 1, 4, 4, 4, 4, 4, 3, 3, 3, 3, 4, 3, 3, 3, 2, 2, 2, 2, 2, 4, 4, 4, 4, 3, 3, 2, 2, 2, 4, 3, 3, 3, 2, 2, 1, 1, 1, 3, 3, 3, 3, 2, 2, 2, 2, 2, 5, 4, 4, 4, 3, 3, 2, 2, 2, 5, 4, 4, 4, 4, 4, 4, 4, 4, 3, 3, 3, 3, 2, 2, 2, 1, 1, 4, 4, 4, 3, 2, 2, 1, 1, 1, 2, 1, 1, 1, 1, 1, 1, 1, 1, 3, 2, 2, 2, 2, 1, 1, 1, 1, 2, 1, 1, 1, 1, 1, 1, 1, 1, 2, 2, 2, 2, 2, 2, 2, 2, 2, 3, 3, 3, 3, 2, 2, 2, 2, 2, 4, 4, 4, 4, 4, 4, 4, 4, 4, 5, 4, 4, 4, 3, 3, 3, 3, 3, 4, 4, 4, 3, 3, 3, 2, 2, 2, 3, 2, 2, 2, 2, 2, 2, 2, 2, 4, 4, 4, 4, 4, 4, 4, 4, 4, 5, 4, 4, 3, 3, 3, 3, 2, 2, 3, 3, 3, 3, 3, 3, 3, 3, 3, 2, 2, 2, 2, 2, 2, 2, 2, 2, 4, 4, 4, 4, 4, 4, 4, 4, 4, 4, 4, 4, 4, 3, 3, 3, 2, 2, 4, 4, 4, 4, 3, 3, 2, 2, 2, 4, 3, 3, 3, 2, 2, 2, 2, 2, 5, 4, 4, 4, 4, 3, 3, 3, 3, 3, 3, 3, 3, 2, 2, 2, 1, 1, 3, 3, 3, 3, 2, 2, 2, 2, 2, 4, 4, 4, 4, 4, 4, 4, 4, 4, 5, 4, 3, 3, 2, 2, 1, 1, 1, 4, 3, 3, 3, 3, 3, 3, 3, 3, 2, 2, 2, 2, 2, 2, 2, 2, 2, 5, 4, 4, 4, 3, 3, 3, 3, 3, 3, 3, 3, 3, 2, 2, 2, 1, 1, 4, 4, 4, 4, 4, 4, 4, 4, 4, 4, 4, 4, 4, 4, 4, 4, 4, 4, 4, 3, 3, 3, 3, 3, 3, 3, 3, 4, 4, 4, 3, 3, 3, 3, 2, 2, 4, 4, 4, 3, 3, 2, 2, 1, 1, 4, 4, 4, 4, 4, 4, 4, 4, 4, 4, 4, 4, 4, 4, 4, 4, 4, 4, 5, 5, 5, 5, 5, 5, 5, 5, 5, 2, 1, 1, 1, 1, 1, 1, 1, 1, 3, 3, 3, 3, 3, 3, 3, 3, 3, 1, 1, 1, 1, 1, 1, 1, 1, 1, 4, 4, 4, 3, 3, 3, 2, 2, 2
 |9, 8, 7, 7, 7, 6, 5, 5, 5, 15, 15, 12, 11, 11, 9, 8, 6, 5, 10, 10, 10, 10, 10, 10, 10, 10, 10, 27, 25, 24, 24, 22, 21, 19, 17, 16, 27, 26, 24, 23, 21, 21, 18, 17, 16, 15, 14, 14, 13, 13, 13, 12, 12, 11, 23, 22, 20, 19, 19, 17, 17, 16, 15, 23, 19, 18, 16, 15, 14, 12, 12, 9, 16, 13, 12, 11, 9, 8, 5, 5, 3, 26, 22, 19, 16, 15, 10, 7, 5, 3, 22, 22, 22, 22, 22, 22, 22, 22, 22, 2, 2, 2, 2, 2, 2, 2, 2, 2, 14, 12, 11, 10, 9, 7, 6, 6, 5, 10, 8, 8, 7, 7, 6, 6, 6, 5, 28, 27, 27, 27, 26, 25, 25, 23, 23, 26, 23, 20, 17, 15, 10, 9, 5, 4, 20, 20, 20, 20, 20, 19, 19, 19, 19, 16, 15, 12, 11, 9, 7, 7, 6, 3, 15, 13, 12, 12, 11, 10, 8, 8, 6, 27, 25, 22, 20, 20, 17, 14, 14, 12, 23, 22, 21, 20, 19, 18, 18, 16, 16, 6, 6, 6, 6, 5, 5, 5, 5, 5, 13, 12, 10, 9, 8, 7, 7, 6, 5, 27, 25, 22, 19, 16, 14, 10, 6, 5, 7, 7, 7, 7, 6, 6, 6, 5, 5, 26, 25, 23, 23, 20, 20, 18, 17, 16, 13, 10, 9, 7, 7, 6, 3, 3, 2, 9, 8, 8, 8, 8, 8, 8, 8, 8, 13, 10, 9, 8, 8, 6, 6, 5, 3, 10, 9, 9, 8, 8, 8, 7, 7, 7, 24, 24, 22, 20, 19, 17, 15, 15, 13, 23, 23, 22, 20, 20, 19, 18, 17, 17, 27, 27, 27, 26, 25, 25, 24, 24, 24, 19, 17, 16, 15, 12, 12, 11, 8, 8, 9, 7, 7, 7, 6, 6, 5, 5, 4, 7, 6, 6, 6, 6, 5, 5, 5, 5, 6, 6, 6, 6, 6, 6, 6, 6, 6, 22, 21, 20, 19, 18, 17, 17, 16, 15, 8, 8, 7, 7, 7, 6, 5, 5, 5, 19, 18, 17, 15, 15, 13, 12, 12, 11, 24, 21, 21, 19, 19, 17, 16, 15, 13, 19, 19, 19, 19, 19, 18, 18, 18, 18, 30, 29, 28, 28, 27, 27, 26, 26, 26, 25, 24, 24, 23, 23, 22, 22, 22, 21, 21, 19, 17, 17, 15, 13, 12, 11, 8, 16, 15, 13, 12, 9, 9, 7, 6, 5, 28, 25, 24, 23, 23, 22, 21, 19, 18, 4, 4, 4, 4, 4, 4, 4, 4, 4, 22, 22, 22, 21, 21, 20, 20, 19, 19, 23, 23, 23, 23, 23, 23, 23, 23, 23
 |27, 25, 23, 19, 17, 12, 9, 6, 2, 7, 5, 5, 5, 3, 3, 3, 1, 1, 23, 20, 20, 15, 13, 11, 11, 6, 5, 11, 11, 11, 10, 10, 9, 9, 8, 8, 29, 24, 23, 20, 15, 15, 12, 8, 5, 9, 9, 8, 8, 7, 7, 6, 6, 5, 25, 24, 19, 16, 14, 12, 7, 5, 3, 15, 15, 15, 15, 15, 14, 14, 14, 14, 8, 8, 8, 8, 8, 8, 8, 8, 8, 7, 5, 5, 4, 3, 3, 2, 2, 1, 20, 18, 18, 18, 17, 17, 16, 15, 15, 29, 28, 28, 28, 28, 28, 28, 28, 28, 20, 19, 18, 16, 16, 15, 13, 13, 12, 18, 16, 13, 13, 11, 8, 7, 5, 3, 25, 25, 20, 20, 16, 12, 11, 9, 4, 28, 28, 27, 26, 24, 23, 22, 21, 21, 12, 12, 12, 12, 12, 11, 11, 11, 11, 26, 20, 20, 17, 14, 12, 9, 3, 1, 25, 23, 22, 22, 20, 18, 18, 17, 15, 30, 29, 29, 28, 27, 27, 26, 26, 26, 13, 13, 12, 10, 9, 9, 8, 6, 5, 10, 9, 8, 6, 6, 5, 4, 3, 3, 24, 24, 19, 17, 13, 11, 6, 4, 2, 25, 22, 22, 21, 19, 17, 17, 14, 13, 17, 17, 15, 15, 14, 13, 12, 11, 10, 18, 17, 17, 17, 17, 17, 17, 17, 17, 15, 15, 13, 12, 8, 7, 6, 4, 2, 20, 19, 18, 16, 16, 14, 14, 12, 12, 16, 16, 16, 16, 15, 15, 15, 15, 15, 17, 14, 14, 12, 12, 9, 8, 8, 6, 16, 14, 12, 10, 8, 8, 5, 3, 1, 28, 28, 28, 28, 28, 27, 27, 27, 27, 21, 21, 21, 21, 20, 20, 20, 20, 20, 25, 24, 20, 17, 15, 14, 10, 7, 7, 22, 19, 19, 17, 16, 15, 15, 13, 13, 26, 24, 24, 22, 21, 20, 19, 19, 18, 20, 18, 18, 17, 17, 16, 16, 16, 15, 16, 15, 14, 14, 14, 13, 12, 12, 12, 14, 13, 13, 12, 12, 11, 11, 10, 10, 30, 25, 23, 18, 17, 16, 12, 10, 7, 18, 17, 14, 14, 12, 8, 8, 5, 3, 15, 12, 12, 10, 9, 8, 7, 7, 6, 22, 21, 18, 16, 14, 14, 13, 10, 8, 17, 17, 13, 13, 9, 7, 7, 3, 2, 25, 25, 25, 25, 25, 25, 25, 25, 25, 7, 7, 6, 6, 5, 5, 4, 4, 3, 15, 15, 13, 11, 10, 10, 7, 6, 6, 30, 27, 25, 25, 21, 20, 19, 16, 16, 17, 16, 14, 12, 9, 9, 8, 5, 4, 28, 27, 23, 21, 18, 18, 16, 12, 9
 |20, 18, 17, 15, 14, 13, 13, 11, 11, 23, 23, 22, 20, 19, 18, 18, 17, 15, 20, 19, 19, 19, 18, 18, 17, 17, 16, 4, 3, 3, 3, 2, 2, 2, 2, 2, 5, 5, 5, 5, 5, 5, 5, 5, 5, 9, 8, 7, 7, 6, 5, 5, 3, 3, 13, 13, 11, 11, 9, 9, 7, 6, 5, 16, 15, 13, 12, 12, 12, 11, 9, 9, 28, 26, 24, 23, 21, 20, 17, 15, 15, 20, 18, 18, 16, 16, 16, 15, 13, 13, 26, 26, 26, 26, 26, 26, 26, 26, 26, 22, 20, 19, 18, 17, 16, 15, 13, 12, 19, 18, 16, 16, 14, 13, 13, 11, 11, 21, 21, 21, 21, 20, 20, 20, 19, 19, 30, 28, 25, 25, 23, 21, 19, 17, 16, 26, 21, 20, 17, 15, 13, 9, 4, 4, 26, 25, 25, 24, 22, 21, 20, 18, 17, 17, 15, 15, 12, 12, 10, 7, 6, 5, 24, 24, 24, 24, 23, 23, 23, 23, 23, 2, 1, 1, 1, 1, 1, 1, 1, 1, 20, 19, 17, 15, 14, 12, 12, 10, 8, 18, 18, 16, 16, 13, 12, 12, 9, 9, 28, 27, 27, 27, 27, 27, 27, 27, 27, 12, 12, 12, 12, 12, 11, 11, 11, 11, 24, 22, 21, 20, 16, 15, 12, 11, 10, 19, 19, 17, 17, 16, 15, 13, 12, 12, 14, 12, 12, 10, 9, 8, 8, 7, 5, 9, 8, 8, 8, 8, 8, 8, 8, 8, 11, 10, 9, 9, 8, 6, 5, 4, 3, 10, 9, 8, 7, 6, 5, 4, 3, 3, 24, 20, 19, 17, 13, 10, 10, 5, 4, 25, 24, 21, 20, 17, 15, 11, 7, 6, 10, 10, 10, 10, 10, 10, 10, 10, 10, 20, 19, 18, 18, 17, 17, 16, 16, 16, 18, 17, 17, 16, 13, 13, 12, 9, 8, 25, 22, 22, 19, 18, 17, 14, 12, 11, 26, 24, 20, 17, 17, 12, 11, 9, 7, 4, 4, 3, 3, 2, 2, 1, 1, 1, 12, 12, 12, 12, 11, 11, 11, 11, 11, 4, 4, 4, 4, 3, 3, 2, 2, 2, 27, 24, 21, 20, 16, 12, 11, 8, 4, 1, 1, 1, 1, 1, 1, 1, 1, 1, 24, 23, 23, 21, 21, 20, 19, 17, 17, 20, 19, 18, 18, 17, 16, 16, 16, 15, 29, 29, 29, 28, 28, 28, 28, 27, 27, 4, 3, 3, 3, 2, 2, 2, 1, 1, 13, 13, 11, 11, 10, 9, 7, 6, 6, 29, 28, 27, 26, 26, 25, 24, 23, 23, 20, 17, 17, 16, 15, 12, 12, 11, 9, 22, 22, 22, 22, 22, 21, 21, 21, 21
 |21, 21, 20, 19, 19, 18, 18, 17, 17, 16, 16, 14, 14, 12, 11, 10, 9, 9, 19, 19, 17, 17, 16, 14, 14, 12, 12, 17, 15, 14, 12, 11, 9, 6, 6, 5, 30, 28, 28, 27, 26, 25, 26, 25, 24, 16, 16, 15, 14, 12, 10, 9, 7, 7, 16, 13, 12, 11, 10, 9, 9, 7, 7, 20, 19, 19, 19, 19, 19, 19, 19, 19, 24, 20, 19, 16, 16, 12, 12, 8, 7, 14, 12, 11, 10, 10, 8, 7, 6, 6, 20, 18, 17, 16, 15, 14, 14, 13, 12, 26, 25, 23, 23, 22, 20, 19, 19, 17, 20, 20, 18, 18, 16, 16, 15, 13, 13, 17, 17, 17, 17, 17, 17, 17, 17, 17, 20, 20, 20, 20, 19, 19, 19, 19, 19, 26, 26, 26, 26, 26, 26, 26, 26, 26, 23, 21, 21, 19, 18, 17, 14, 12, 11, 8, 7, 7, 7, 7, 7, 7, 7, 7, 15, 15, 15, 14, 15, 15, 15, 15, 15, 21, 20, 19, 19, 19, 18, 18, 17, 17, 15, 15, 14, 12, 10, 8, 8, 6, 5, 26, 23, 22, 21, 18, 16, 13, 12, 11, 20, 20, 18, 17, 16, 15, 13, 13, 12, 9, 9, 9, 8, 8, 8, 7, 7, 7, 24, 24, 22, 19, 18, 14, 13, 12, 8, 9, 8, 8, 6, 6, 5, 4, 3, 3, 17, 15, 14, 13, 11, 9, 9, 6, 6, 10, 8, 7, 6, 6, 5, 4, 2, 1, 11, 10, 9, 7, 6, 5, 4, 3, 3, 18, 17, 15, 14, 12, 11, 8, 7, 5, 25, 25, 25, 25, 25, 25, 25, 25, 25, 21, 19, 18, 16, 13, 11, 9, 8, 7, 29, 28, 27, 28, 27, 27, 27, 26, 25, 22, 21, 21, 20, 20, 20, 19, 19, 18, 25, 25, 24, 25, 25, 24, 24, 24, 24, 12, 11, 10, 11, 10, 10, 9, 9, 9, 17, 15, 15, 12, 11, 11, 9, 7, 6, 30, 26, 21, 20, 16, 14, 10, 10, 7, 13, 13, 13, 13, 13, 12, 12, 12, 11, 11, 9, 7, 6, 6, 5, 4, 3, 1, 12, 10, 10, 9, 8, 6, 4, 4, 2, 11, 11, 9, 8, 7, 6, 4, 2, 1, 12, 10, 10, 8, 8, 6, 6, 5, 4, 24, 24, 22, 22, 20, 19, 18, 17, 17, 9, 8, 7, 7, 6, 4, 3, 3, 1, 20, 19, 18, 17, 16, 15, 15, 15, 14, 27, 26, 26, 25, 24, 24, 24, 23, 23, 17, 16, 15, 14, 13, 11, 10, 9, 8, 9, 9, 9, 9, 9, 9, 9, 9, 9, 25, 22, 22, 21, 18, 17, 15, 12, 12|];